(set-info :smt-lib-version 2.6)
(set-logic QF_SLIA)
(set-info :source |
Generated by: Joel Day, Thorsten Ehlers, Mitja Kulczynski, Federico Mora, Florin Manea, Dirk Nowotka, Danny Poulsen, Zhengyang Lu
Application: Test WOORPJE
Target solver: WOORPJE
Publications: Day, J. D., Ehlers, T., Kulczynski, M., Manea, F., Nowotka, D., & Poulsen, D. B. (2019). On solving word equations using SAT. In RP 2019
Description: Enriches a system of 30 word equations by suitable linear constraints
|)
(set-info :license "https://creativecommons.org/licenses/by/4.0/")
(set-info :category "random")
(set-info :status unknown)

(declare-fun H () String)
(declare-fun B () String)
(declare-fun E () String)
(declare-fun A () String)
(declare-fun C () String)
(assert (= (str.++  "dc" A "a" E "cdacfadbafafe")  (str.++  "d" H "e" B "dbafafe") ))
(assert (= (str.++  "afddecdebcc" E "accffbecfcbaacfbbefdbedbeaa")  (str.++  "afddecdebcccaaccffbecfcbaacfbbefdbedbeaa" "") ))
(assert (= (str.++  "afbfebdfccaceacea" C "ffddbacfdcebdadbabcca")  (str.++  "afbfebdfc" E "ceaceaedffddbacfdcebdadbabc" E) ))
(assert (>=(* (str.len B) 15) 150))
(assert (>=(* (str.len H) 6) 54))
(assert (<=(* (str.len H) 1) 74))
(assert (<=(* (str.len A) 20) 2040))
(assert (<=(* (str.len C) 8) 24))
(check-sat)

(exit)
